p wcnf 120 1500
1 -114 115 0
3 -112 -119 0
10 -112 -117 0
4 -112 118 0
5 -111 -115 0
9 -111 -112 0
3 -110 120 0
5 -109 120 0
5 -108 -120 0
9 -108 114 0
4 -107 -118 0
5 -107 -117 0
7 -105 108 0
4 -105 113 0
7 -104 -116 0
7 -104 -112 0
4 -104 105 0
8 -103 -117 0
2 -103 -112 0
8 -103 -108 0
1 -102 120 0
2 -101 -102 0
1 -101 102 0
5 -101 113 0
5 -100 -106 0
10 -100 -105 0
6 -100 104 0
1 -99 -104 0
9 -99 107 0
4 -99 110 0
7 -99 119 0
9 -98 -118 0
6 -98 -100 0
7 -98 99 0
3 -98 108 0
10 -97 -112 0
6 -96 -114 0
6 -96 -107 0
5 -96 -97 0
1 -96 104 0
5 -95 -119 0
8 -94 -120 0
5 -93 -118 0
2 -93 -112 0
2 -93 -108 0
2 -93 -106 0
8 -93 106 0
5 -92 -97 0
8 -91 95 0
9 -91 113 0
3 -90 -114 0
8 -90 113 0
10 -90 120 0
4 -89 -120 0
3 -89 -119 0
5 -89 -103 0
4 -88 -108 0
8 -87 -106 0
5 -87 -94 0
2 -87 92 0
2 -86 -119 0
2 -86 87 0
1 -86 92 0
7 -86 115 0
9 -85 93 0
4 -85 94 0
6 -84 -118 0
5 -84 -99 0
9 -84 96 0
2 -84 100 0
6 -83 -110 0
4 -83 -94 0
9 -83 84 0
10 -83 86 0
5 -83 95 0
10 -83 119 0
1 -82 -107 0
3 -82 -84 0
5 -81 -120 0
9 -81 -94 0
2 -81 85 0
8 -81 93 0
7 -80 -93 0
1 -80 104 0
1 -80 111 0
9 -79 -107 0
5 -79 -90 0
4 -79 102 0
8 -78 -92 0
9 -78 -86 0
5 -78 80 0
8 -78 85 0
2 -77 -109 0
5 -77 -85 0
5 -77 101 0
9 -76 -92 0
8 -76 -91 0
2 -76 85 0
5 -76 93 0
7 -76 96 0
2 -76 99 0
9 -76 101 0
9 -76 103 0
10 -76 120 0
9 -75 -117 0
4 -75 -106 0
10 -75 -105 0
9 -75 79 0
6 -75 80 0
5 -75 118 0
8 -74 -118 0
6 -74 -88 0
2 -74 -84 0
5 -74 96 0
7 -74 119 0
3 -73 -97 0
4 -73 -89 0
2 -73 96 0
5 -73 97 0
2 -73 111 0
10 -73 117 0
9 -72 -113 0
9 -72 -108 0
1 -72 75 0
5 -72 78 0
4 -72 84 0
10 -72 97 0
3 -72 119 0
5 -71 -113 0
4 -71 -95 0
9 -71 79 0
6 -71 84 0
4 -71 91 0
8 -71 103 0
6 -71 112 0
2 -70 -80 0
2 -70 80 0
6 -70 99 0
1 -69 -108 0
7 -69 -104 0
9 -69 -77 0
8 -69 73 0
3 -69 75 0
2 -68 -110 0
2 -68 -106 0
8 -68 -89 0
3 -68 -78 0
5 -68 -73 0
9 -68 83 0
7 -67 -72 0
6 -67 83 0
9 -67 119 0
7 -66 -113 0
5 -66 -112 0
10 -66 80 0
2 -66 82 0
9 -66 86 0
10 -66 107 0
4 -65 -100 0
3 -65 68 0
4 -65 74 0
2 -65 75 0
9 -65 78 0
7 -65 84 0
9 -65 91 0
5 -65 108 0
8 -64 -86 0
1 -64 -72 0
9 -64 66 0
8 -64 90 0
7 -64 95 0
8 -64 101 0
6 -63 -101 0
9 -63 -99 0
9 -63 -75 0
8 -63 -70 0
7 -63 79 0
2 -63 88 0
3 -63 115 0
7 -62 -116 0
9 -62 -106 0
8 -62 -102 0
6 -62 -95 0
5 -62 -91 0
3 -62 -80 0
6 -62 73 0
6 -62 74 0
2 -62 83 0
5 -61 -85 0
9 -61 -79 0
5 -61 85 0
8 -61 93 0
10 -61 100 0
3 -61 110 0
5 -61 115 0
9 -60 -104 0
7 -60 -95 0
3 -60 -93 0
9 -60 -65 0
6 -60 81 0
1 -60 87 0
6 -59 -117 0
4 -59 -95 0
6 -59 -82 0
5 -59 -73 0
3 -59 70 0
4 -59 101 0
2 -59 108 0
5 -58 -95 0
6 -58 -80 0
8 -58 -64 0
3 -58 99 0
4 -58 102 0
4 -57 -113 0
8 -57 -97 0
6 -57 -89 0
8 -57 67 0
4 -57 87 0
7 -56 -86 0
3 -56 -78 0
2 -56 61 0
2 -56 72 0
1 -55 -64 0
2 -55 63 0
4 -55 68 0
5 -55 85 0
2 -55 98 0
10 -55 115 0
7 -55 118 0
10 -54 -108 0
5 -54 -70 0
7 -54 60 0
6 -54 67 0
9 -54 78 0
3 -54 101 0
10 -54 116 0
2 -53 -105 0
6 -53 -104 0
2 -53 56 0
5 -53 85 0
2 -53 88 0
9 -53 96 0
8 -53 106 0
5 -53 114 0
2 -52 -120 0
5 -52 -107 0
1 -52 -96 0
9 -52 -71 0
8 -52 66 0
7 -51 -108 0
3 -51 -97 0
10 -51 -91 0
8 -51 -76 0
3 -51 52 0
2 -51 64 0
3 -51 110 0
7 -51 119 0
3 -50 -94 0
2 -50 -71 0
4 -50 54 0
2 -49 -113 0
7 -49 -109 0
1 -49 -108 0
7 -49 -103 0
6 -49 -97 0
4 -49 72 0
7 -49 86 0
6 -49 90 0
9 -49 91 0
8 -49 104 0
2 -49 109 0
10 -48 -92 0
7 -48 -89 0
9 -48 -83 0
4 -48 -77 0
8 -48 -62 0
4 -48 78 0
5 -48 90 0
8 -48 98 0
2 -47 -67 0
2 -47 -61 0
9 -47 48 0
2 -47 59 0
10 -47 70 0
2 -47 72 0
3 -46 52 0
2 -46 67 0
8 -46 92 0
5 -45 -113 0
4 -45 -112 0
3 -45 -105 0
7 -45 -72 0
9 -45 -63 0
3 -45 -61 0
4 -45 -50 0
5 -45 63 0
6 -45 67 0
1 -45 84 0
1 -44 -75 0
5 -44 -66 0
9 -44 -47 0
2 -44 51 0
4 -44 69 0
6 -43 -89 0
10 -43 -87 0
8 -43 -80 0
4 -43 -47 0
4 -43 45 0
2 -43 54 0
2 -43 74 0
5 -43 86 0
3 -43 91 0
1 -42 -109 0
7 -42 -108 0
3 -42 -85 0
3 -42 -68 0
9 -42 50 0
4 -42 51 0
10 -42 54 0
4 -42 83 0
7 -42 88 0
2 -42 91 0
9 -42 117 0
6 -41 -117 0
4 -41 -115 0
3 -41 -107 0
10 -41 48 0
9 -41 67 0
4 -40 -80 0
1 -40 -64 0
4 -40 -51 0
3 -40 -49 0
3 -40 51 0
7 -40 53 0
8 -40 64 0
2 -40 102 0
5 -39 -116 0
2 -39 -109 0
6 -39 -74 0
6 -39 -66 0
3 -39 -57 0
1 -39 55 0
9 -39 67 0
4 -39 81 0
7 -38 -104 0
2 -38 -100 0
5 -38 -55 0
6 -38 42 0
5 -38 48 0
5 -38 60 0
8 -38 112 0
2 -38 115 0
6 -37 -114 0
8 -37 -102 0
7 -37 -89 0
10 -37 -72 0
1 -37 -66 0
6 -37 -57 0
9 -37 47 0
4 -37 62 0
7 -37 69 0
2 -37 71 0
6 -37 91 0
8 -37 106 0
8 -36 -98 0
3 -36 -95 0
10 -36 -70 0
3 -36 -55 0
4 -36 73 0
5 -35 -110 0
8 -35 -92 0
7 -35 -84 0
5 -35 -79 0
7 -35 -68 0
9 -35 -54 0
2 -35 -37 0
7 -35 44 0
5 -35 49 0
6 -35 108 0
2 -34 -79 0
9 -34 -54 0
5 -34 35 0
3 -34 86 0
5 -34 103 0
3 -34 112 0
8 -33 -116 0
5 -33 -101 0
3 -33 -93 0
5 -33 -74 0
3 -33 -55 0
6 -33 -37 0
1 -33 60 0
4 -33 74 0
1 -33 77 0
8 -33 100 0
2 -33 110 0
4 -33 116 0
8 -32 -113 0
4 -32 -89 0
7 -32 -83 0
3 -32 -37 0
2 -32 45 0
4 -32 49 0
7 -32 50 0
8 -32 57 0
3 -32 70 0
8 -32 93 0
5 -32 110 0
7 -32 115 0
4 -32 118 0
6 -31 -116 0
6 -31 -111 0
8 -31 -109 0
8 -31 -107 0
9 -31 -94 0
10 -31 -56 0
7 -31 60 0
4 -31 62 0
2 -31 93 0
1 -31 95 0
6 -30 -69 0
7 -30 -61 0
2 -30 -56 0
9 -30 -48 0
8 -30 -46 0
9 -30 34 0
2 -30 79 0
1 -30 97 0
7 -29 -103 0
5 -29 -75 0
8 -29 -70 0
9 -29 -40 0
6 -29 -38 0
2 -29 59 0
7 -28 -94 0
3 -28 -92 0
4 -28 -75 0
5 -28 -66 0
7 -28 31 0
1 -28 35 0
8 -28 56 0
4 -28 84 0
6 -28 97 0
6 -27 -114 0
2 -27 -93 0
5 -27 -66 0
6 -27 -63 0
8 -27 -46 0
8 -27 -37 0
7 -27 -30 0
8 -27 -29 0
5 -27 49 0
4 -27 50 0
8 -27 71 0
4 -26 -83 0
2 -26 -61 0
7 -26 -44 0
5 -26 84 0
2 -26 90 0
4 -26 115 0
8 -25 -111 0
9 -25 -94 0
4 -25 -88 0
4 -25 -83 0
10 -25 -65 0
9 -25 -59 0
6 -25 -35 0
4 -25 44 0
4 -25 52 0
4 -25 69 0
4 -25 75 0
2 -25 88 0
7 -25 111 0
9 -24 34 0
7 -24 81 0
8 -24 103 0
5 -23 -118 0
2 -23 -82 0
5 -23 30 0
3 -23 45 0
8 -23 53 0
3 -23 63 0
7 -23 73 0
2 -23 97 0
1 -23 100 0
10 -23 120 0
3 -22 -98 0
8 -22 -88 0
4 -22 -59 0
4 -22 44 0
2 -22 49 0
3 -22 61 0
2 -22 75 0
5 -22 102 0
6 -22 110 0
2 -22 116 0
4 -21 -106 0
2 -21 -102 0
5 -21 -85 0
7 -21 -49 0
5 -21 -26 0
8 -21 -25 0
8 -21 23 0
1 -21 56 0
8 -21 80 0
4 -21 86 0
8 -21 93 0
2 -20 -114 0
6 -20 -74 0
3 -20 -63 0
4 -20 -46 0
4 -20 27 0
5 -20 42 0
10 -20 62 0
5 -20 105 0
6 -19 -104 0
10 -19 -96 0
7 -19 -87 0
3 -19 -55 0
4 -19 34 0
10 -19 61 0
5 -19 68 0
6 -19 88 0
2 -19 90 0
9 -18 -111 0
2 -18 -104 0
3 -18 -100 0
2 -18 -61 0
2 -18 -48 0
8 -18 -37 0
8 -18 21 0
6 -18 42 0
6 -18 71 0
6 -18 76 0
6 -18 90 0
4 -18 92 0
9 -18 110 0
4 -17 -108 0
5 -17 -107 0
5 -17 -98 0
6 -17 -59 0
8 -17 -35 0
8 -17 69 0
10 -17 78 0
8 -17 80 0
4 -17 94 0
5 -17 103 0
7 -17 118 0
10 -16 -113 0
8 -16 -70 0
1 -16 -58 0
9 -16 -21 0
2 -16 47 0
6 -16 65 0
2 -16 68 0
10 -16 75 0
7 -16 103 0
4 -16 110 0
2 -16 113 0
8 -16 118 0
1 -15 -113 0
10 -15 -92 0
4 -15 -91 0
6 -15 -52 0
5 -15 -16 0
9 -15 30 0
9 -15 32 0
5 -15 46 0
3 -15 67 0
4 -15 76 0
9 -15 94 0
7 -14 -98 0
2 -14 -91 0
7 -14 -76 0
7 -14 -54 0
9 -14 19 0
10 -14 38 0
2 -14 51 0
6 -14 71 0
9 -14 84 0
9 -14 86 0
6 -14 95 0
8 -13 -53 0
1 -13 19 0
3 -13 61 0
9 -13 64 0
1 -13 78 0
8 -13 80 0
3 -13 86 0
3 -13 99 0
6 -13 111 0
3 -13 117 0
2 -13 119 0
9 -12 -118 0
9 -12 -109 0
6 -12 -92 0
8 -12 -63 0
8 -12 -42 0
1 -12 -34 0
1 -12 23 0
2 -12 26 0
9 -12 44 0
7 -12 48 0
3 -12 61 0
6 -12 101 0
5 -11 -111 0
2 -11 -92 0
5 -11 -84 0
6 -11 13 0
7 -11 42 0
4 -11 79 0
5 -11 89 0
3 -11 95 0
3 -11 97 0
5 -10 -70 0
5 -10 -14 0
2 -10 27 0
6 -10 38 0
3 -10 41 0
4 -10 75 0
7 -10 93 0
8 -10 119 0
6 -9 -104 0
8 -9 -97 0
7 -9 -86 0
5 -9 -77 0
5 -9 -63 0
6 -9 -45 0
3 -9 -37 0
5 -9 -22 0
6 -9 12 0
4 -9 16 0
4 -9 46 0
3 -9 62 0
6 -9 102 0
9 -8 -119 0
7 -8 -104 0
6 -8 -99 0
4 -8 -77 0
3 -8 -68 0
3 -8 -58 0
7 -8 -43 0
7 -8 -17 0
6 -8 11 0
9 -8 93 0
2 -8 105 0
9 -7 -120 0
1 -7 -98 0
7 -7 -72 0
2 -7 -14 0
4 -7 -9 0
4 -7 12 0
9 -7 30 0
9 -7 41 0
2 -7 62 0
7 -7 64 0
4 -7 67 0
6 -7 72 0
2 -7 109 0
6 -7 113 0
10 -6 -117 0
7 -6 -70 0
9 -6 9 0
3 -6 27 0
9 -6 75 0
5 -6 90 0
2 -6 98 0
6 -5 -82 0
2 -5 -75 0
5 -5 -67 0
8 -5 -32 0
4 -5 20 0
2 -5 35 0
4 -5 65 0
8 -5 89 0
2 -5 101 0
6 -5 108 0
8 -5 111 0
2 -5 118 0
3 -4 -101 0
9 -4 -49 0
5 -4 -46 0
6 -4 -38 0
8 -4 -24 0
4 -4 -14 0
7 -4 -12 0
5 -4 17 0
8 -4 42 0
3 -4 47 0
6 -4 52 0
4 -4 70 0
3 -4 80 0
3 -4 81 0
3 -4 92 0
5 -4 93 0
2 -3 -94 0
7 -3 -93 0
6 -3 -83 0
7 -3 -53 0
8 -3 -50 0
10 -3 -38 0
5 -3 -8 0
2 -3 16 0
2 -3 30 0
8 -3 43 0
9 -3 68 0
3 -3 106 0
4 -3 111 0
7 -2 -116 0
4 -2 -113 0
6 -2 -87 0
6 -2 -80 0
8 -2 -75 0
1 -2 -71 0
4 -2 -44 0
2 -2 -42 0
7 -2 -30 0
8 -2 -14 0
8 -2 3 0
9 -2 22 0
4 -2 47 0
2 -2 85 0
1 -2 86 0
6 -2 107 0
4 -1 -112 0
5 -1 -83 0
8 -1 -54 0
2 -1 -34 0
1 -1 -23 0
5 -1 -15 0
8 -1 -10 0
1 -1 -2 0
9 -1 3 0
9 -1 4 0
3 -1 17 0
8 -1 44 0
8 -1 47 0
5 -1 58 0
2 -1 59 0
5 -1 63 0
8 -1 84 0
6 -1 85 0
9 -1 117 0
5 1 -111 0
7 1 -82 0
3 1 -48 0
6 1 -20 0
4 1 -5 0
10 1 7 0
4 1 61 0
2 1 93 0
4 2 -113 0
6 2 -88 0
3 2 -84 0
9 2 -83 0
9 2 -77 0
7 2 -51 0
7 2 -41 0
9 2 -35 0
8 2 -32 0
2 2 16 0
8 2 18 0
8 2 21 0
1 2 69 0
7 2 88 0
10 2 120 0
8 3 -98 0
5 3 -5 0
4 3 37 0
8 3 40 0
8 3 56 0
2 3 74 0
5 3 90 0
8 4 -83 0
6 4 -68 0
1 4 -59 0
9 4 -27 0
2 4 5 0
4 4 32 0
9 4 60 0
6 4 67 0
5 4 99 0
3 4 100 0
1 4 112 0
7 5 -110 0
2 5 -98 0
9 5 -74 0
4 5 -54 0
8 5 -51 0
9 5 -32 0
2 5 6 0
9 5 8 0
7 5 16 0
9 5 37 0
9 5 67 0
3 5 76 0
9 5 102 0
7 6 -104 0
7 6 -78 0
3 6 -17 0
5 6 61 0
5 6 63 0
4 6 66 0
9 6 80 0
3 6 98 0
9 6 104 0
9 6 107 0
2 7 -119 0
1 7 -88 0
3 7 -84 0
2 7 -75 0
6 7 -40 0
7 7 -36 0
3 7 -33 0
6 7 44 0
4 7 46 0
4 7 49 0
5 7 55 0
7 7 66 0
2 7 67 0
4 7 87 0
8 8 -111 0
1 8 -72 0
10 8 -66 0
7 8 -53 0
9 8 18 0
3 8 37 0
6 8 43 0
6 8 46 0
9 8 82 0
8 8 85 0
10 8 109 0
4 9 -120 0
1 9 -116 0
9 9 -106 0
6 9 -97 0
9 9 -58 0
7 9 -34 0
7 9 -15 0
10 9 10 0
9 9 18 0
8 9 47 0
6 9 65 0
6 9 97 0
1 9 99 0
2 9 108 0
9 10 -101 0
5 10 -83 0
6 10 -59 0
6 10 -43 0
6 10 -36 0
9 10 -23 0
4 10 -13 0
6 10 31 0
9 10 76 0
1 10 92 0
5 10 115 0
2 11 -119 0
6 11 -104 0
10 11 -92 0
10 11 -77 0
3 11 -62 0
10 11 -37 0
4 11 -26 0
4 11 -21 0
9 11 59 0
9 11 64 0
3 11 65 0
6 11 99 0
6 11 102 0
3 11 106 0
5 12 -119 0
4 12 -99 0
8 12 -96 0
10 12 -89 0
5 12 -44 0
8 12 -41 0
9 12 -29 0
9 12 -27 0
5 12 -18 0
5 12 21 0
5 12 30 0
4 12 55 0
8 12 75 0
10 12 79 0
3 12 97 0
8 12 100 0
5 13 -113 0
3 13 -111 0
4 13 -91 0
5 13 -88 0
3 13 -86 0
7 13 -81 0
5 13 -77 0
6 13 -71 0
10 13 -53 0
3 13 15 0
5 13 22 0
3 13 35 0
8 13 45 0
1 13 52 0
5 13 53 0
3 13 77 0
5 13 78 0
3 13 114 0
3 13 115 0
9 13 117 0
1 14 -120 0
2 14 -104 0
7 14 -91 0
5 14 -77 0
6 14 -64 0
2 14 -50 0
8 14 -18 0
4 14 37 0
2 14 75 0
9 14 107 0
2 15 -113 0
6 15 -111 0
3 15 -106 0
5 15 -87 0
10 15 -60 0
5 15 65 0
2 15 85 0
5 15 103 0
10 16 -100 0
2 16 -75 0
7 16 -72 0
4 16 21 0
4 16 59 0
5 16 85 0
5 16 86 0
8 16 89 0
8 16 105 0
8 16 108 0
10 16 111 0
10 17 -69 0
7 17 -49 0
10 17 -42 0
2 17 -40 0
4 17 -20 0
5 17 -18 0
6 17 48 0
5 17 52 0
2 17 59 0
9 17 102 0
6 17 110 0
1 17 114 0
10 18 -61 0
2 18 -59 0
3 18 -56 0
5 18 -49 0
2 18 69 0
7 18 107 0
6 18 120 0
5 19 -106 0
6 19 -104 0
7 19 -87 0
2 19 -71 0
10 19 -61 0
10 19 -56 0
7 19 -22 0
4 19 35 0
8 19 39 0
4 19 74 0
2 19 104 0
8 20 -105 0
4 20 -39 0
8 20 42 0
8 20 44 0
5 20 85 0
2 20 93 0
2 20 100 0
10 20 115 0
6 21 -98 0
4 21 -97 0
8 21 -51 0
2 21 33 0
4 21 48 0
8 21 71 0
3 21 72 0
6 21 74 0
3 21 116 0
4 22 -117 0
3 22 -101 0
8 22 -42 0
8 22 -34 0
8 22 25 0
5 22 35 0
10 22 50 0
8 22 70 0
5 22 73 0
6 22 94 0
2 22 99 0
3 23 -68 0
10 23 -36 0
4 23 -24 0
10 23 31 0
4 23 38 0
2 23 43 0
7 23 51 0
7 23 68 0
3 23 70 0
9 24 -103 0
7 24 -76 0
8 24 -56 0
3 24 -43 0
5 24 25 0
10 24 63 0
6 24 64 0
3 24 76 0
3 24 93 0
2 24 98 0
5 24 109 0
6 24 112 0
4 24 117 0
3 25 -89 0
4 25 -77 0
2 25 -76 0
7 25 -72 0
4 25 -70 0
9 25 -39 0
2 25 -36 0
9 25 -30 0
1 25 35 0
4 25 97 0
9 26 -112 0
4 26 -108 0
3 26 -103 0
2 26 34 0
5 26 44 0
10 26 91 0
8 26 105 0
7 27 -87 0
9 27 -74 0
5 27 -56 0
6 27 -49 0
1 27 -43 0
9 27 -42 0
6 27 -41 0
6 27 -33 0
2 27 -32 0
8 27 33 0
7 27 43 0
5 27 60 0
4 27 76 0
9 27 94 0
7 27 101 0
7 27 116 0
10 28 -118 0
4 28 -75 0
10 28 -65 0
9 28 40 0
5 28 85 0
9 29 -92 0
9 29 -70 0
8 29 41 0
8 29 49 0
3 29 91 0
1 29 110 0
9 30 -94 0
7 30 -84 0
1 30 -71 0
7 30 -52 0
4 30 50 0
9 30 51 0
2 30 55 0
9 30 65 0
9 30 95 0
9 31 -117 0
5 31 -61 0
5 31 -50 0
10 31 -32 0
2 31 34 0
2 31 53 0
5 31 56 0
5 31 72 0
10 31 79 0
2 31 90 0
2 31 110 0
10 32 -80 0
6 32 34 0
2 32 56 0
8 32 59 0
10 32 93 0
10 32 105 0
7 33 -109 0
7 33 -107 0
7 33 -95 0
9 33 -75 0
8 33 -66 0
6 33 -63 0
7 33 34 0
8 33 112 0
3 34 -96 0
1 34 -93 0
6 34 -87 0
4 34 -67 0
9 34 37 0
6 34 48 0
3 34 50 0
4 34 56 0
10 34 61 0
3 34 67 0
6 35 -94 0
1 35 -86 0
7 35 -83 0
10 35 -65 0
10 35 -64 0
8 35 -63 0
2 35 -52 0
9 35 59 0
4 35 83 0
3 35 108 0
8 36 -104 0
4 36 -101 0
3 36 -100 0
5 36 -65 0
1 36 -46 0
9 36 -37 0
4 36 38 0
8 36 59 0
5 36 67 0
10 36 91 0
5 36 93 0
7 36 114 0
10 37 -114 0
2 37 -105 0
10 37 -95 0
9 37 -49 0
6 37 40 0
3 37 98 0
3 37 100 0
6 37 110 0
4 38 -71 0
8 38 -45 0
6 38 68 0
1 38 87 0
8 38 101 0
6 38 113 0
9 38 117 0
9 38 119 0
5 38 120 0
3 39 -90 0
1 39 -76 0
3 39 -62 0
6 39 -58 0
3 39 -55 0
7 39 48 0
6 39 58 0
2 39 70 0
1 40 -119 0
3 40 -113 0
6 40 -106 0
1 40 -104 0
8 40 -94 0
3 40 -82 0
1 40 -69 0
8 40 -68 0
2 40 59 0
10 40 87 0
5 40 110 0
4 40 120 0
3 41 -110 0
10 41 -72 0
7 41 -61 0
10 41 -52 0
6 41 62 0
8 41 91 0
8 41 98 0
2 41 111 0
7 41 115 0
6 42 -88 0
6 42 -84 0
9 42 -77 0
6 42 -55 0
9 42 -51 0
4 42 -47 0
8 42 44 0
6 42 50 0
9 42 54 0
9 42 62 0
6 42 77 0
3 42 109 0
4 42 114 0
6 43 -107 0
9 43 -103 0
6 43 -101 0
7 43 -89 0
8 43 -76 0
7 43 -75 0
6 43 -52 0
2 43 81 0
1 43 101 0
8 44 -120 0
2 44 -117 0
8 44 -115 0
8 44 -95 0
7 44 -63 0
5 44 -51 0
6 44 68 0
8 44 73 0
2 44 100 0
2 45 -110 0
4 45 -89 0
1 45 -83 0
7 45 -64 0
2 45 -52 0
4 45 46 0
5 45 54 0
7 45 72 0
4 45 73 0
4 45 77 0
3 45 88 0
5 45 96 0
7 45 107 0
9 45 112 0
5 45 115 0
3 46 -82 0
6 46 59 0
2 46 87 0
9 46 120 0
2 47 -111 0
4 47 -74 0
10 47 -60 0
9 47 50 0
4 48 92 0
7 48 97 0
8 48 106 0
1 48 110 0
3 48 113 0
4 49 -108 0
8 49 -104 0
4 49 -99 0
5 49 -97 0
2 49 -60 0
4 49 -58 0
2 49 62 0
3 49 77 0
8 49 88 0
7 49 97 0
9 49 116 0
1 50 -119 0
10 50 -109 0
3 50 -95 0
5 50 -82 0
7 50 -74 0
1 50 -51 0
9 50 51 0
9 51 -101 0
6 51 -99 0
1 51 -58 0
8 51 73 0
7 51 100 0
4 51 104 0
8 52 -118 0
6 52 -100 0
7 52 -92 0
5 52 -85 0
4 52 -78 0
7 52 -64 0
7 52 83 0
7 52 91 0
5 52 93 0
1 53 -119 0
2 53 -100 0
6 53 -80 0
4 53 114 0
3 54 -99 0
8 54 -79 0
2 54 61 0
8 54 83 0
8 54 89 0
2 54 92 0
8 54 95 0
9 54 97 0
6 54 107 0
5 54 110 0
9 55 -75 0
5 55 -68 0
4 55 75 0
5 55 85 0
5 55 87 0
2 55 90 0
2 55 97 0
8 55 104 0
9 56 -116 0
8 56 -112 0
5 56 -106 0
5 56 -101 0
2 56 -88 0
2 56 -81 0
2 56 -58 0
8 56 59 0
6 56 63 0
2 56 86 0
8 56 102 0
2 56 105 0
6 57 -79 0
1 57 -78 0
9 57 -62 0
6 57 77 0
8 58 -117 0
7 58 -111 0
7 58 -84 0
6 58 -70 0
6 58 62 0
4 58 64 0
1 58 118 0
5 59 -101 0
8 59 -81 0
4 59 66 0
10 59 78 0
3 59 93 0
5 59 106 0
2 60 -114 0
10 60 -81 0
4 60 72 0
9 60 74 0
5 60 90 0
8 60 107 0
9 60 109 0
6 61 -99 0
9 61 -68 0
7 61 113 0
2 62 -89 0
1 62 -79 0
5 62 67 0
3 62 111 0
6 62 115 0
5 63 -70 0
2 63 88 0
2 63 103 0
3 63 104 0
8 63 110 0
8 64 -71 0
9 64 77 0
3 64 105 0
2 64 118 0
9 65 -105 0
8 65 -92 0
9 65 -69 0
2 65 78 0
8 65 91 0
2 66 80 0
6 66 87 0
8 66 118 0
2 67 75 0
10 67 76 0
7 67 109 0
5 68 -95 0
8 68 -93 0
6 68 103 0
10 68 112 0
7 68 115 0
3 69 -107 0
2 69 -80 0
7 70 -100 0
7 70 84 0
3 70 91 0
3 71 94 0
2 72 -86 0
4 72 104 0
4 72 106 0
4 73 -95 0
2 73 83 0
3 73 95 0
3 73 120 0
4 74 -95 0
4 74 79 0
2 74 81 0
2 74 107 0
3 74 119 0
3 75 -98 0
9 75 -96 0
4 75 -83 0
9 75 85 0
7 75 109 0
4 76 -101 0
8 76 -93 0
4 76 -90 0
9 76 -82 0
6 76 80 0
9 76 90 0
9 76 92 0
3 76 99 0
2 77 -114 0
9 77 84 0
10 77 106 0
8 77 109 0
2 77 111 0
3 78 -118 0
9 78 -112 0
6 78 -96 0
6 78 92 0
3 78 93 0
6 78 96 0
8 78 118 0
5 79 -118 0
10 79 -114 0
1 79 -106 0
6 79 -104 0
2 79 -92 0
3 79 111 0
8 80 -118 0
9 80 -99 0
6 80 -88 0
6 80 94 0
6 80 120 0
9 81 109 0
5 81 119 0
10 82 -116 0
8 82 -103 0
1 82 -101 0
9 82 -83 0
7 82 91 0
3 82 92 0
1 82 117 0
6 83 -104 0
3 83 -102 0
8 83 -84 0
7 84 -109 0
5 84 -107 0
7 84 -104 0
3 84 106 0
10 85 101 0
10 85 104 0
8 85 113 0
7 85 119 0
5 86 -101 0
8 86 -92 0
8 86 -88 0
1 86 104 0
9 86 113 0
10 86 117 0
8 87 -113 0
8 87 -89 0
6 87 94 0
4 87 115 0
5 88 -94 0
5 88 104 0
8 88 109 0
4 89 -97 0
3 89 92 0
8 90 -97 0
3 90 98 0
9 90 103 0
2 90 115 0
3 91 94 0
5 92 -94 0
4 92 117 0
1 92 119 0
2 92 120 0
7 93 103 0
8 94 -120 0
4 94 -111 0
7 94 -97 0
8 94 109 0
3 95 -118 0
4 96 -109 0
3 96 -100 0
10 96 110 0
2 98 -108 0
3 98 -107 0
9 98 120 0
2 99 103 0
10 99 108 0
7 99 120 0
6 100 109 0
4 100 118 0
2 101 -117 0
1 101 -115 0
2 101 105 0
5 101 119 0
3 102 -114 0
9 102 -106 0
7 102 106 0
2 102 109 0
10 103 -112 0
10 103 112 0
6 103 116 0
3 104 -110 0
10 104 105 0
7 104 119 0
10 105 -112 0
8 105 114 0
2 106 -108 0
7 106 112 0
6 107 -109 0
4 107 115 0
10 108 -112 0
8 109 -115 0
4 109 114 0
2 111 -119 0
10 112 -113 0
2 113 114 0
2 115 120 0
10 116 117 0
9 117 119 0
8 118 119 0
